(set-info :smt-lib-version 2.6)
(set-logic QF_UFLRA)
(set-info :source |
MathSat group

|)
(set-info :category "random")
(set-info :status sat)
(declare-fun x0 () Real)
(declare-fun x1 () Real)
(declare-fun x2 () Real)
(declare-fun x3 () Real)
(declare-fun x4 () Real)
(declare-fun x5 () Real)
(declare-fun x6 () Real)
(declare-fun x7 () Real)
(declare-fun x8 () Real)
(declare-fun x9 () Real)
(declare-fun x10 () Real)
(declare-fun x11 () Real)
(declare-fun x12 () Real)
(declare-fun x13 () Real)
(declare-fun x14 () Real)
(declare-fun x15 () Real)
(declare-fun x16 () Real)
(declare-fun x17 () Real)
(declare-fun x18 () Real)
(declare-fun x19 () Real)
(declare-fun x20 () Real)
(declare-fun x21 () Real)
(declare-fun x22 () Real)
(declare-fun x23 () Real)
(declare-fun x24 () Real)
(declare-fun x25 () Real)
(declare-fun x26 () Real)
(declare-fun x27 () Real)
(declare-fun x28 () Real)
(declare-fun x29 () Real)
(declare-fun x30 () Real)
(declare-fun x31 () Real)
(declare-fun x32 () Real)
(declare-fun x33 () Real)
(declare-fun x34 () Real)
(declare-fun x35 () Real)
(declare-fun x36 () Real)
(declare-fun x37 () Real)
(declare-fun x38 () Real)
(declare-fun x39 () Real)
(declare-fun f0_1 (Real) Real)
(declare-fun f0_2 (Real Real) Real)
(declare-fun f0_3 (Real Real Real) Real)
(declare-fun f0_4 (Real Real Real Real) Real)
(declare-fun P0 () Bool)
(declare-fun P1 () Bool)
(declare-fun P2 () Bool)
(declare-fun P3 () Bool)
(declare-fun P4 () Bool)
(declare-fun P5 () Bool)
(declare-fun P6 () Bool)
(declare-fun P7 () Bool)
(declare-fun P8 () Bool)
(declare-fun P9 () Bool)
(declare-fun P10 () Bool)
(declare-fun P11 () Bool)
(declare-fun P12 () Bool)
(declare-fun P13 () Bool)
(declare-fun P14 () Bool)
(declare-fun P15 () Bool)
(declare-fun P16 () Bool)
(declare-fun P17 () Bool)
(declare-fun P18 () Bool)
(declare-fun P19 () Bool)
(declare-fun P20 () Bool)
(declare-fun P21 () Bool)
(declare-fun P22 () Bool)
(declare-fun P23 () Bool)
(declare-fun P24 () Bool)
(declare-fun P25 () Bool)
(declare-fun P26 () Bool)
(declare-fun P27 () Bool)
(declare-fun P28 () Bool)
(declare-fun P29 () Bool)
(declare-fun P30 () Bool)
(declare-fun P31 () Bool)
(declare-fun P32 () Bool)
(declare-fun P33 () Bool)
(declare-fun P34 () Bool)
(declare-fun P35 () Bool)
(declare-fun P36 () Bool)
(declare-fun P37 () Bool)
(declare-fun P38 () Bool)
(declare-fun P39 () Bool)
(assert (let ((?v_129 (* 44 x21)) (?v_15 (< (- (+ (* 41 x19) (* 10 x22)) (* 12 x1)) 0)) (?v_63 (* 24 x23)) (?v_77 (<= (- (+ (* 9 x1) (* 53 x11)) (* 26 x18)) 30)) (?v_32 (* 47 x25)) (?v_0 (= (- (+ (* 46 x13) (* 22 x1)) (* 37 x22)) 43)) (?v_159 (<= (- (- (* 41 x2) (* 33 x3)) (* 54 x21)) 47)) (?v_112 (<= (+ (- (* 5 x23) (* 35 x27)) (* 38 x1)) 30)) (?v_75 (distinct (f0_2 x28 x1) x0)) (?v_209 (= (f0_2 x10 x8) (f0_2 x1 x34))) (?v_116 (distinct x18 (f0_2 x11 x23))) (?v_94 (= x8 (f0_2 x15 x0))) (?v_43 (f0_1 x37)) (?v_6 (f0_1 x6))) (let ((?v_54 (distinct ?v_43 ?v_6)) (?v_160 (= ?v_43 (f0_1 x39))) (?v_64 (distinct (f0_1 x19) ?v_43)) (?v_4 (f0_1 x32))) (let ((?v_19 (distinct (f0_2 x13 x34) ?v_4)) (?v_27 (f0_1 x20))) (let ((?v_104 (= ?v_27 x27)) (?v_21 (f0_1 x30))) (let ((?v_200 (distinct x28 ?v_21)) (?v_140 (f0_2 x12 x38))) (let ((?v_198 (distinct (f0_2 x2 x7) ?v_140)) (?v_85 (distinct ?v_140 x17)) (?v_65 (distinct (f0_2 x17 x19) (f0_2 x31 x23))) (?v_87 (= ?v_4 (f0_1 x14))) (?v_52 (= x5 (f0_2 x36 x38))) (?v_23 (f0_1 x24))) (let ((?v_169 (distinct ?v_23 (f0_2 x32 x13))) (?v_164 (distinct ?v_27 ?v_6)) (?v_91 (= (f0_1 x35) ?v_6)) (?v_167 (= (f0_2 x24 x3) (f0_2 x2 x32))) (?v_24 (f0_1 x36))) (let ((?v_138 (= ?v_23 ?v_24)) (?v_130 (= x31 ?v_24)) (?v_29 (f0_1 x21))) (let ((?v_57 (= x22 ?v_29)) (?v_31 (f0_1 x0))) (let ((?v_137 (= ?v_23 ?v_31)) (?v_170 (= (f0_2 x24 x16) (f0_1 x7))) (?v_123 (distinct (f0_1 x22) (f0_2 x9 x15))) (?v_182 (= (f0_2 x37 x29) ?v_31)) (?v_108 (= x7 ?v_29)) (?v_51 (distinct x39 (f0_1 x2))) (?v_25 (= (f0_2 x5 x9) ?v_23)) (?v_92 (distinct (f0_2 x35 x12) x22)) (?v_13 (distinct (f0_2 x15 x31) (f0_2 x8 x39))) (?v_114 (= (f0_1 x34) ?v_29)) (?v_78 (= (f0_2 x37 x14) (f0_1 x31))) (?v_69 (distinct x10 x0)) (?v_119 (= (f0_2 x35 x30) ?v_29)) (?v_115 (= (f0_2 x37 x0) x3)) (?v_147 (= ?v_31 x21)) (?v_14 (= (f0_2 x25 x16) x37)) (?v_187 (distinct (f0_1 x38) x0)) (?v_33 (distinct ?v_24 ?v_21)) (?v_1 (not ?v_75)) (?v_34 (not P7))) (let ((?v_18 (not ?v_14)) (?v_148 (not P11)) (?v_30 (not ?v_164)) (?v_3 (not ?v_0)) (?v_88 (not P1)) (?v_53 (not P4)) (?v_50 (not P36)) (?v_35 (not P23)) (?v_109 (not P30)) (?v_10 (not P22)) (?v_71 (not P12)) (?v_132 (not P5)) (?v_36 (not ?v_87)) (?v_188 (not P33)) (?v_55 (not P10)) (?v_42 (not ?v_13)) (?v_47 (not P26)) (?v_82 (not ?v_92)) (?v_96 (not P25)) (?v_95 (not ?v_19)) (?v_39 (not ?v_200)) (?v_134 (not P35)) (?v_28 (not ?v_25)) (?v_118 (not P19)) (?v_38 (not P38)) (?v_44 (not ?v_130)) (?v_68 (not P31)) (?v_49 (not ?v_112)) (?v_84 (not ?v_209)) (?v_81 (not P32)) (?v_45 (not ?v_182)) (?v_72 (not ?v_33)) (?v_56 (not P8)) (?v_184 (not P24)) (?v_101 (not P9)) (?v_176 (not P0)) (?v_204 (not ?v_65)) (?v_61 (not P3)) (?v_158 (not ?v_51)) (?v_93 (not P15)) (?v_206 (not ?v_52)) (?v_62 (not ?v_54)) (?v_153 (not ?v_91)) (?v_193 (not P14)) (?v_76 (not ?v_119)) (?v_197 (not P28)) (?v_177 (not ?v_77)) (?v_111 (not ?v_170)) (?v_126 (not ?v_159)) (?v_127 (not ?v_85)) (?v_102 (not ?v_15)) (?v_117 (not ?v_57)) (?v_103 (not ?v_94)) (?v_172 (not P21)) (?v_120 (not P20)) (?v_162 (not ?v_69)) (?v_146 (not ?v_187)) (?v_152 (not P37)) (?v_113 (not ?v_108)) (?v_207 (not P18)) (?v_178 (not ?v_78)) (?v_186 (not P29)) (?v_151 (not P17)) (?v_128 (not ?v_114)) (?v_154 (not ?v_115)) (?v_194 (not ?v_116)) (?v_168 (not P6)) (?v_163 (not ?v_167)) (?v_144 (not ?v_123)) (?v_203 (not ?v_147)) (?v_157 (not P2)) (?v_190 (not ?v_160)) (?v_166 (not ?v_137)) (?v_179 (not P34)) (?v_185 (not ?v_169)) (?v_192 (not P13)) (?v_195 (not P16)) (?v_210 (not ?v_138)) (?v_202 (not P27)) (?v_205 (not ?v_104))) (let ((?v_208 (or ?v_200 ?v_10)) (?v_37 (<= (+ (* 33 x32) (* 3 x19) (* 36 x23)) 10))) (let ((?v_5 (not ?v_37)) (?v_8 (distinct (- (* 42 x9) (* 30 x24)) 29))) (let ((?v_16 (not ?v_8)) (?v_181 (< (+ (* 34 x30) (* 31 x14) (* 54 x17)) 1))) (let ((?v_183 (not ?v_181)) (?v_2 (< (- (- (* (- 33) x37) (* 33 x5)) (* 39 x24)) (- 30))) (?v_40 (<= (+ (- (* (- 39) x27) (* 7 x11)) (* 4 x14)) 29))) (let ((?v_11 (not ?v_40)) (?v_12 (= (+ (* 34 x14) (* 32 x39) (* 41 x1)) (- 34))) (?v_20 (distinct (+ (- (* 24 x30) (* 46 x7)) (* 11 x23)) (- 18)))) (let ((?v_9 (not ?v_20)) (?v_7 (< (- (- (* 32 x8) (* 51 x31)) (* 41 x4)) (- 11))) (?v_83 (< (- (- (* (- 49) x2) (* 10 x38)) (* 24 x3)) (- 45))) (?v_98 (<= (+ (* 53 x30) (* 29 x4) (* 36 x34)) (- 54)))) (let ((?v_17 (not ?v_98)) (?v_86 (distinct (- (- (* (- 30) x16) (* 8 x10)) 0) 38)) (?v_22 (<= (+ (- (* 45 x27) (* 14 x7)) (* 39 x29)) (- 33))) (?v_41 (< (- (- (* 8 x29) (* 17 x19)) (* 56 x38)) (- 40))) (?v_26 (not ?v_12)) (?v_99 (distinct (+ (- (* 47 x10) (* 43 x20)) (* 44 x15)) (- 57)))) (let ((?v_73 (not ?v_99)) (?v_70 (< (+ (- (* (- 39) x5) (* 15 x36)) ?v_63) (- 34)))) (let ((?v_79 (not ?v_70)) (?v_97 (< (- (+ (* (- 26) x28) ?v_32) (* 8 x12)) 12)) (?v_89 (not ?v_22)) (?v_122 (< (- (- (* (- 15) x21) (* 11 x30)) (* 33 x25)) (- 38)))) (let ((?v_106 (not ?v_122)) (?v_59 (distinct (+ (- (* (- 47) x14) (* 57 x37)) ?v_32) (- 48))) (?v_67 (< (+ (- (* 34 x6) (* 37 x37)) (* 4 x15)) (- 45))) (?v_66 (< (- (+ (* (- 2) x5) (* 27 x1)) (* 33 x33)) 8)) (?v_46 (<= (+ (- (* (- 53) x37) (* 7 x15)) (* 57 x36)) 55))) (let ((?v_74 (not ?v_46)) (?v_48 (<= (- (+ (* (- 3) x22) (* 55 x33)) (* 38 x24)) 40))) (let ((?v_121 (not ?v_48)) (?v_133 (distinct (- (+ (* 55 x34) (* 20 x29)) (* 43 x11)) (- 38)))) (let ((?v_58 (not ?v_133)) (?v_60 (not ?v_41)) (?v_141 (<= (- (- (* (- 14) x26) (* 50 x8)) ?v_63) (- 30)))) (let ((?v_171 (not ?v_141)) (?v_80 (not ?v_66)) (?v_124 (<= (+ (- (* (- 13) x9) x29) (* 56 x5)) 49)) (?v_143 (not ?v_7)) (?v_125 (not ?v_83)) (?v_131 (< (+ (* (- 51) x26) (* 7 x35) (* 34 x21)) 13)) (?v_90 (< (+ (- (* (- 38) x28) (* 18 x34)) (* 11 x19)) 34)) (?v_139 (<= (- (- (* (- 7) x19) (* 4 x27)) (* 19 x39)) (- 14)))) (let ((?v_100 (not ?v_139)) (?v_135 (not ?v_90)) (?v_110 (<= (+ (* (- 36) x11) (* 21 x4) (* 33 x34)) 13)) (?v_149 (= (- (+ (* (- 38) x3) (* 13 x20)) (* 51 x15)) (- 30)))) (let ((?v_196 (not ?v_149)) (?v_105 (< (- (- (* (- 14) x25) (* 27 x17)) (* 27 x36)) (- 45)))) (let ((?v_189 (not ?v_105)) (?v_180 (not ?v_2)) (?v_155 (< (+ (* (- 51) x13) (* 14 x17) (* 18 x13)) (- 2)))) (let ((?v_165 (not ?v_155)) (?v_107 (<= (- (- (* (- 38) x15) ?v_129) (* 36 x15)) (- 59)))) (let ((?v_142 (not ?v_107)) (?v_150 (not ?v_124)) (?v_156 (<= (+ (- (* (- 15) x2) (* 14 x20)) ?v_129) (- 43)))) (let ((?v_136 (not ?v_156)) (?v_145 (not ?v_131)) (?v_161 (not ?v_86)) (?v_173 (distinct (+ (* (- 28) x9) (* 37 x29)) (- 7)))) (let ((?v_175 (not ?v_173)) (?v_174 (not ?v_97)) (?v_199 (or ?v_180 ?v_1)) (?v_191 (not ?v_110)) (?v_201 (not ?v_67))) (and (and (and (and (and (and (and (and (and (and (and (and (and (and (and (and (and (and (and (and (and (and (and (and (and (and (and (and (and (and (and (and (and (and (and (and (and (and (and (and (and (and (and (and (and (and (and (and (and (and (and (and (and (and (and (and (and (and (and (and (and (and (and (and (and (and (and (and (and (and (and (and (and (and (and (and (and (and (and (and (and (and (and (and (and (and (and (and (and (and (and (and (and (and (and (and (and (and (and (and (and (and (and (and (and (and (and (and (and (and (and (and (and (and (and (and (and (and (and (and (and (and (and (and (and (and (and (and (and (and (and (and (and (and (and (and (and (and (and (and (and (and (and (and (and (and (and (and (and (and (and (and (and (and (and (and (and (and (and (and (and (and (and (and (and (and (and (and (and (and (and (and (and (and (and (and (and (and (and (and (and (and (and (and (and (and (and (and (and (and (and (and (and (and (and (and (and (and (and (and (and (and (and (and (and (and (and (and (and (and (and (and (and (and (and (and (and (and (and (and (and (and (and (and (and (and (and (and (and (and (and (and (and (and (and (and (and (and (and (and (and (and (and (and (and (and (and (and (and (and (and (and (and (and (and (and (and (and (and (and (and (and (and (and (and (and (and (and (and (and (and (and (and (and (and (and (and (and (and (and (and (and (and (and (and (and (and (and (and (and (and (and (and (and (and (and (and (and (and (and (and (and (and (and (and (and (and (and (and (and (and (and (and (and (and (and (and (and (and (and (and (and (and (and (and (and (and (and (and (and (and (and (and (and (and (and (and (and (and (and (and (and (and (and (and (and (and (and (and (and (and (and (and (and (and (and (and (and (and (and (and (and (and (and (and (and (and (and (and (and (and (and (and (and (and (and (and (and (and (and (and (and (and (and (and (and (and (and (and (and (and (and (and (and (and (and (and (and (and (and (and (and (and (and (and (and (and (and (and (and (and (and (and (and (and (and (and (and (and (and (and (and (and (and (and (and (and (and (and (and (and (and (and (and (and (and (and (and (and (and (and (and (and (and (and (and (and (and (and (and (and (and (and (and (and (and (and (and (and (and (and (and (and (and (and (and (and (and (and (and (and (and (and (and (and (and (and (and (and (or (or ?v_1 ?v_34) ?v_18) (or (or ?v_2 ?v_148) ?v_30)) (or (or ?v_0 ?v_13) ?v_5)) (or (or ?v_3 ?v_88) ?v_11)) (or (or ?v_53 ?v_12) ?v_1)) (or (or ?v_8 P25) ?v_9)) (or (or ?v_50 ?v_35) ?v_109)) (or (or ?v_10 ?v_71) ?v_7)) (or (or ?v_2 ?v_83) ?v_3)) (or (or ?v_132 ?v_36) P18)) (or (or P19 P11) ?v_17)) (or (or ?v_33 P18) ?v_19)) (or (or ?v_5 ?v_54) ?v_7)) (or (or P8 ?v_188) ?v_15)) (or (or ?v_86 ?v_16) ?v_55)) (or (or ?v_0 ?v_9) ?v_10)) (or (or ?v_22 ?v_41) ?v_11)) (or (or ?v_26 P20) ?v_42)) (or (or ?v_73 ?v_8) ?v_14)) (or (or ?v_15 ?v_79) P38)) (or (or ?v_3 P33) ?v_123)) (or (or ?v_16 ?v_47) ?v_17)) (or (or ?v_82 ?v_97) P25)) (or (or ?v_96 ?v_18) ?v_95)) (or (or ?v_20 ?v_39) ?v_89)) (or (or ?v_137 ?v_134) ?v_28)) (or (or ?v_118 ?v_38) P33)) (or (or ?v_44 ?v_52) ?v_7)) (or (or P23 ?v_68) ?v_57)) (or (or ?v_49 ?v_25) ?v_26)) (or (or P28 ?v_104) ?v_12)) (or (or ?v_28 P33) ?v_84)) (or (or ?v_106 P30) P9)) (or (or P11 ?v_114) ?v_81)) (or (or ?v_78 ?v_30) ?v_45)) (or (or (not ?v_59) P1) ?v_72)) (or (or ?v_77 ?v_34) ?v_35)) (or (or P13 ?v_67) ?v_36)) (or (or ?v_7 ?v_56) ?v_37)) (or (or ?v_38 ?v_116) ?v_39)) (or (or ?v_16 ?v_66) P31)) (or (or ?v_184 P32) ?v_51)) (or (or ?v_40 ?v_41) ?v_42)) (or (or ?v_101 ?v_115) ?v_64)) (or (or ?v_74 ?v_44) ?v_13)) (or (or ?v_45 P15) ?v_176)) (or (or ?v_13 ?v_46) ?v_121)) (or (or ?v_204 ?v_44) ?v_47)) (or (or ?v_17 ?v_61) ?v_48)) (or (or P37 ?v_49) ?v_50)) (or (or ?v_85 ?v_158) ?v_40)) (or (or ?v_93 ?v_206) P27)) (or (or ?v_53 ?v_62) ?v_55)) (or (or ?v_58 ?v_153) ?v_60)) (or (or ?v_12 ?v_33) ?v_56)) (or (or ?v_69 ?v_57) ?v_20)) (or (or P20 ?v_58) ?v_59)) (or (or ?v_60 ?v_61) ?v_62)) (or (or P35 ?v_171) ?v_160)) (or (or ?v_64 ?v_16) ?v_65)) (or (or ?v_193 P3) ?v_80)) (or (or ?v_76 ?v_197) ?v_42)) (or (or ?v_61 ?v_67) ?v_68)) (or (or ?v_69 ?v_70) ?v_71)) (or (or P28 ?v_124) ?v_72)) (or (or ?v_73 ?v_74) ?v_75)) (or (or ?v_76 P23) ?v_52)) (or (or ?v_177 ?v_78) P18)) (or (or P37 P6) ?v_143)) (or (or P18 ?v_33) P15)) (or (or P25 ?v_79) P35)) (or (or ?v_55 ?v_80) P2)) (or (or ?v_111 ?v_126) ?v_81)) (or (or ?v_82 ?v_125) ?v_131)) (or (or ?v_84 ?v_94) ?v_1)) (or (or ?v_90 P14) P10)) (or (or (not P39) ?v_42) ?v_0)) (or (or ?v_127 ?v_102) ?v_117)) (or (or P38 ?v_17) ?v_100)) (or (or ?v_86 ?v_46) ?v_33)) (or (or P21 ?v_86) ?v_55)) (or (or ?v_108 ?v_8) ?v_147)) (or (or ?v_49 ?v_87) ?v_0)) (or (or ?v_88 ?v_89) ?v_54)) (or (or ?v_80 P9) P26)) (or (or ?v_52 ?v_90) ?v_22)) (or (or ?v_83 ?v_91) ?v_135)) (or (or ?v_45 ?v_37) ?v_18)) (or (or ?v_8 ?v_79) ?v_30)) (or (or ?v_92 ?v_93) P3)) (or (or P0 ?v_103) ?v_18)) (or (or P25 ?v_95) ?v_61)) (or (or ?v_172 ?v_110) ?v_62)) (or (or ?v_96 ?v_97) P35)) (or (or ?v_98 ?v_196) ?v_92)) (or (or ?v_99 ?v_66) ?v_100)) (or (or ?v_101 ?v_91) ?v_14)) (or (or ?v_94 ?v_105) ?v_102)) (or (or ?v_74 P27) ?v_120)) (or (or ?v_183 ?v_103) ?v_104)) (or (or ?v_162 ?v_189) ?v_180)) (or (or ?v_66 ?v_146) ?v_18)) (or (or ?v_48 ?v_165) P21)) (or (or P10 ?v_11) ?v_49)) (or (or P35 ?v_106) ?v_142)) (or (or ?v_76 P7) P9)) (or (or ?v_77 P22) P27)) (or (or ?v_72 ?v_57) ?v_152)) (or (or ?v_107 ?v_92) P27)) (or (or ?v_138 ?v_33) ?v_113)) (or (or ?v_109 P19) ?v_110)) (or (or ?v_111 ?v_207) P24)) (or (or ?v_112 ?v_47) P33)) (or (or ?v_101 ?v_113) ?v_178)) (or (or ?v_186 ?v_151) ?v_128)) (or (or ?v_54 ?v_154) ?v_102)) (or (or ?v_20 ?v_55) ?v_54)) (or (or ?v_194 ?v_168) ?v_117)) (or (or ?v_118 ?v_13) ?v_119)) (or (or ?v_120 ?v_121) P18)) (or (or ?v_108 ?v_75) ?v_116)) (or (or ?v_51 ?v_3) ?v_64)) (or (or ?v_122 P9) ?v_123)) (or (or ?v_163 ?v_150) ?v_91)) (or (or ?v_125 ?v_76) ?v_10)) (or (or ?v_126 ?v_79) ?v_80)) (or (or ?v_100 ?v_96) ?v_108)) (or (or ?v_127 P3) ?v_128)) (or (or ?v_112 (not ?v_64)) ?v_115)) (or (or ?v_59 ?v_136) ?v_67)) (or (or ?v_130 ?v_131) ?v_132)) (or (or ?v_102 ?v_120) ?v_113)) (or (or P9 P2) ?v_56)) (or (or ?v_95 ?v_133) ?v_73)) (or (or ?v_134 ?v_13) ?v_55)) (or (or P6 ?v_135) ?v_5)) (or (or ?v_11 P13) ?v_145)) (or (or ?v_136 ?v_137) ?v_131)) (or (or ?v_144 ?v_138) P9)) (or (or P31 ?v_139) ?v_0)) (or (or ?v_198 ?v_141) ?v_11)) (or (or ?v_124 ?v_135) ?v_94)) (or (or ?v_142 P31) ?v_3)) (or (or ?v_143 ?v_144) ?v_145)) (or (or ?v_146 ?v_0) P3)) (or (or P38 ?v_110) ?v_203)) (or (or ?v_148 ?v_149) P31)) (or (or ?v_7 P3) P24)) (or (or ?v_161 ?v_116) ?v_134)) (or (or ?v_66 ?v_147) P15)) (or (or ?v_57 ?v_150) ?v_85)) (or (or ?v_64 ?v_61) P37)) (or (or ?v_72 ?v_149) ?v_142)) (or (or ?v_126 ?v_139) ?v_151)) (or (or P27 ?v_152) ?v_91)) (or (or ?v_73 ?v_2) ?v_153)) (or (or ?v_55 ?v_81) P3)) (or (or ?v_154 ?v_59) P18)) (or (or ?v_11 ?v_136) ?v_101)) (or (or ?v_72 ?v_8) ?v_9)) (or (or ?v_33 ?v_147) ?v_38)) (or (or ?v_52 ?v_157) P36)) (or (or ?v_112 ?v_155) ?v_88)) (or (or ?v_134 P6) ?v_156)) (or (or ?v_157 ?v_12) ?v_124)) (or (or ?v_158 ?v_17) ?v_159)) (or (or ?v_101 ?v_190) P21)) (or (or P37 ?v_71) ?v_161)) (or (or ?v_18 ?v_115) ?v_16)) (or (or ?v_72 P12) ?v_73)) (or (or ?v_109 ?v_39) ?v_58)) (or (or ?v_54 ?v_169) ?v_162)) (or (or ?v_163 ?v_110) ?v_166)) (or (or ?v_66 ?v_55) ?v_146)) (or (or ?v_146 ?v_105) ?v_179)) (or (or ?v_164 ?v_141) ?v_175)) (or (or P4 ?v_59) ?v_125)) (or (or ?v_94 P18) ?v_82)) (or (or ?v_165 ?v_138) ?v_118)) (or (or ?v_117 ?v_54) ?v_166)) (or (or ?v_66 P38) P9)) (or (or ?v_163 ?v_162) ?v_5)) (or (or ?v_90 ?v_158) P39)) (or (or P28 P5) ?v_123)) (or (or ?v_8 ?v_114) ?v_167)) (or (or ?v_33 ?v_61) ?v_167)) (or (or ?v_168 ?v_145) ?v_52)) (or (or P25 ?v_92) ?v_115)) (or (or ?v_160 P16) ?v_146)) (or (or ?v_14 ?v_185) ?v_109)) (or (or ?v_170 ?v_171) ?v_127)) (or (or ?v_7 ?v_65) ?v_160)) (or (or ?v_159 P10) ?v_168)) (or (or ?v_78 ?v_103) ?v_100)) (or (or ?v_85 ?v_74) ?v_10)) (or (or ?v_2 ?v_91) P7)) (or (or ?v_52 ?v_171) ?v_67)) (or (or ?v_25 ?v_174) ?v_172)) (or (or ?v_173 ?v_83) P20)) (or (or ?v_50 ?v_174) P10)) (or (or ?v_175 P24) ?v_36)) (or (or P7 ?v_3) ?v_81)) (or (or ?v_134 ?v_136) ?v_153)) (or (or ?v_111 P22) ?v_146)) (or (or P0 ?v_2) ?v_53)) (or (or P11 ?v_173) ?v_95)) (or (or ?v_44 ?v_71) ?v_176)) (or (or ?v_55 ?v_130) ?v_81)) (or (or ?v_165 ?v_54) ?v_1)) (or (or ?v_14 ?v_159) ?v_177)) (or (or ?v_107 P33) ?v_156)) (or (or ?v_74 ?v_34) ?v_17)) (or (or ?v_47 ?v_125) P27)) (or (or ?v_70 ?v_22) ?v_34)) (or (or ?v_178 ?v_179) ?v_157)) (or (or ?v_48 P29) ?v_110)) (or (or ?v_66 ?v_57) P2)) (or ?v_199 P33)) (or (or ?v_161 ?v_41) ?v_178)) (or (or ?v_128 ?v_9) P18)) (or (or P13 ?v_46) ?v_158)) (or (or ?v_28 ?v_17) ?v_89)) (or (or ?v_3 ?v_100) ?v_20)) (or (or P3 ?v_181) P33)) (or (or ?v_191 ?v_34) P9)) (or (or ?v_179 ?v_134) ?v_47)) (or (or ?v_20 P38) ?v_162)) (or (or ?v_106 ?v_172) ?v_180)) (or (or ?v_174 ?v_160) ?v_14)) (or (or P7 ?v_182) ?v_60)) (or (or ?v_60 ?v_44) ?v_70)) (or (or ?v_123 ?v_17) ?v_11)) (or (or ?v_181 ?v_84) ?v_105)) (or (or P2 ?v_124) P3)) (or (or ?v_150 ?v_55) ?v_183)) (or (or ?v_143 ?v_71) ?v_84)) (or (or ?v_86 ?v_28) ?v_19)) (or (or ?v_26 ?v_97) P37)) (or (or P16 ?v_74) P21)) (or (or ?v_126 P25) ?v_184)) (or (or ?v_185 ?v_2) ?v_108)) (or (or ?v_125 ?v_186) P36)) (or (or ?v_7 ?v_87) ?v_99)) (or (or ?v_88 ?v_146) ?v_65)) (or (or ?v_119 ?v_17) ?v_187)) (or (or ?v_68 ?v_123) ?v_148)) (or (or ?v_56 P19) ?v_145)) (or (or ?v_28 ?v_89) ?v_97)) (or (or ?v_110 ?v_121) ?v_26)) (or (or P3 ?v_142) ?v_22)) (or (or ?v_179 ?v_82) ?v_103)) (or (or P33 ?v_138) P19)) (or (or ?v_36 ?v_188) ?v_7)) (or (or ?v_68 ?v_107) ?v_171)) (or (or ?v_159 ?v_189) ?v_45)) (or (or ?v_117 ?v_189) ?v_19)) (or (or P12 ?v_92) P15)) (or (or ?v_190 ?v_91) P6)) (or (or ?v_10 ?v_138) ?v_47)) (or (or P39 ?v_155) ?v_139)) (or (or ?v_191 ?v_19) ?v_192)) (or (or P18 P1) ?v_161)) (or (or ?v_54 ?v_195) ?v_210)) (or (or P10 ?v_0) ?v_46)) (or (or ?v_121 ?v_166) P26)) (or (or ?v_180 ?v_191) ?v_128)) (or (or ?v_53 ?v_10) ?v_48)) (or (or P7 ?v_120) ?v_157)) (or (or ?v_139 ?v_88) ?v_192)) (or (or ?v_65 ?v_13) ?v_95)) (or (or ?v_28 ?v_102) ?v_34)) (or (or ?v_130 P17) P15)) (or (or ?v_12 ?v_108) ?v_132)) (or (or ?v_173 P29) ?v_117)) (or (or ?v_190 ?v_36) ?v_52)) (or (or ?v_16 ?v_46) ?v_190)) (or (or ?v_120 P1) ?v_61)) (or (or ?v_111 ?v_180) P33)) (or (or ?v_139 P15) ?v_70)) (or (or ?v_87 ?v_178) ?v_148)) (or (or ?v_160 ?v_137) P26)) (or (or ?v_16 P33) P30)) (or (or ?v_117 P37) ?v_139)) (or (or ?v_18 ?v_167) ?v_180)) (or (or ?v_166 ?v_66) ?v_188)) (or (or ?v_171 ?v_135) ?v_60)) (or (or ?v_15 P4) ?v_180)) (or (or P37 ?v_143) ?v_132)) (or (or ?v_124 ?v_83) P7)) (or (or ?v_132 ?v_192) P17)) (or (or ?v_0 P22) ?v_95)) (or (or ?v_81 ?v_7) P22)) (or (or ?v_193 ?v_165) P30)) (or (or P12 ?v_127) P21)) (or (or ?v_112 P12) ?v_184)) (or (or ?v_194 ?v_95) ?v_88)) (or (or ?v_169 ?v_195) ?v_160)) (or (or ?v_202 ?v_56) ?v_11)) (or (or ?v_94 ?v_48) ?v_196)) (or (or ?v_127 P15) ?v_73)) (or (or ?v_189 ?v_100) P32)) (or (or ?v_174 ?v_115) ?v_90)) (or (or ?v_112 ?v_67) ?v_68)) (or (or ?v_7 ?v_50) ?v_197)) (or (or ?v_198 P35) ?v_35)) (or (or ?v_179 ?v_128) ?v_115)) (or ?v_199 ?v_134)) (or (or ?v_47 ?v_83) ?v_149)) (or (or ?v_118 ?v_25) ?v_186)) (or (or ?v_169 ?v_201) ?v_113)) (or (or P4 ?v_130) P39)) (or (or ?v_78 ?v_138) ?v_111)) (or (or ?v_79 ?v_134) ?v_193)) (or (or ?v_118 ?v_178) ?v_154)) (or (or ?v_52 ?v_142) P26)) (or (or ?v_133 ?v_3) P30)) (or (or ?v_56 ?v_196) ?v_77)) (or (or P2 ?v_46) P33)) (or (or ?v_84 ?v_37) ?v_154)) (or (or ?v_160 ?v_156) ?v_137)) (or (or ?v_125 ?v_171) ?v_147)) (or (or ?v_77 ?v_200) ?v_46)) (or (or ?v_201 ?v_205) ?v_16)) (or (or ?v_90 ?v_66) ?v_22)) (or (or ?v_184 P4) ?v_139)) (or (or ?v_162 P3) P6)) (or (or ?v_131 ?v_134) ?v_202)) (or (or ?v_201 ?v_131) ?v_74)) (or (or ?v_157 ?v_203) ?v_15)) (or (or ?v_40 ?v_30) ?v_109)) (or (or ?v_15 ?v_146) ?v_80)) (or (or ?v_116 ?v_196) ?v_26)) (or (or ?v_193 ?v_204) ?v_205)) (or (or ?v_151 ?v_103) ?v_113)) (or (or ?v_138 ?v_16) ?v_5)) (or (or P31 ?v_41) ?v_143)) (or (or P25 ?v_64) ?v_168)) (or (or ?v_1 ?v_125) ?v_100)) (or (or ?v_112 ?v_130) ?v_77)) (or (or ?v_130 ?v_65) ?v_185)) (or (or ?v_147 ?v_200) ?v_84)) (or (or ?v_134 ?v_9) ?v_19)) (or (or ?v_93 ?v_65) ?v_135)) (or (or ?v_180 ?v_155) ?v_88)) (or (or ?v_187 ?v_33) ?v_81)) (or (or ?v_57 ?v_77) ?v_197)) (or (or P8 ?v_66) P12)) (or (or ?v_113 ?v_87) P32)) (or (or ?v_73 ?v_89) ?v_85)) (or ?v_208 ?v_50)) (or (or P34 ?v_165) ?v_127)) (or (or ?v_181 ?v_65) ?v_75)) (or (or ?v_172 ?v_151) ?v_83)) (or (or ?v_66 P14) ?v_205)) (or (or ?v_105 P35) ?v_52)) (or (or ?v_3 ?v_39) ?v_47)) (or (or ?v_147 ?v_15) ?v_167)) (or (or ?v_56 P8) ?v_15)) (or (or ?v_132 P35) ?v_84)) (or (or ?v_47 ?v_155) ?v_141)) (or (or ?v_90 ?v_106) ?v_51)) (or (or ?v_157 ?v_123) ?v_0)) (or (or ?v_127 ?v_135) ?v_134)) (or (or ?v_25 ?v_126) ?v_57)) (or (or ?v_80 ?v_14) ?v_48)) (or (or ?v_153 ?v_37) P15)) (or (or ?v_180 ?v_145) ?v_40)) (or (or ?v_121 ?v_28) ?v_96)) (or (or P9 ?v_127) ?v_194)) (or (or ?v_83 ?v_106) ?v_184)) (or (or ?v_122 ?v_28) ?v_162)) (or (or ?v_48 ?v_155) ?v_50)) (or (or ?v_186 ?v_100) ?v_154)) (or (or ?v_122 ?v_34) ?v_206)) (or (or P39 ?v_54) ?v_12)) (or (or ?v_153 ?v_195) ?v_22)) (or (or ?v_143 P38) ?v_136)) (or (or ?v_42 ?v_94) ?v_85)) (or (or ?v_90 ?v_112) ?v_207)) (or (or ?v_81 ?v_30) P12)) (or ?v_208 ?v_22)) (or (or ?v_54 P18) ?v_82)) (or (or ?v_156 ?v_188) ?v_193)) (or (or P26 P15) ?v_123)) (or (or ?v_206 ?v_108) ?v_162)) (or (or ?v_117 ?v_66) ?v_47)) (or (or ?v_194 ?v_162) ?v_101)) (or (or P34 P10) P6)) (or (or ?v_138 ?v_174) ?v_68)) (or (or ?v_209 ?v_168) ?v_166)) (or (or ?v_182 ?v_124) ?v_71)) (or (or ?v_99 ?v_142) ?v_48)) (or (or ?v_125 ?v_90) P17)) (or (or ?v_62 ?v_141) ?v_192)) (or (or ?v_78 ?v_181) ?v_194)) (or (or ?v_38 ?v_17) ?v_188)) (or (or ?v_12 P8) P23)) (or (or ?v_113 ?v_100) ?v_54)) (or (or ?v_105 P30) ?v_206)) (or (or ?v_115 ?v_138) P19)) (or (or ?v_95 ?v_48) P17)) (or (or ?v_84 ?v_98) ?v_113)) (or (or ?v_92 ?v_204) P13)) (or (or ?v_7 ?v_81) P8)) (or (or P8 ?v_41) P0)) (or (or ?v_62 ?v_22) ?v_7)) (or (or ?v_130 ?v_37) ?v_101)) (or (or ?v_68 ?v_200) ?v_167)) (or (or ?v_18 ?v_90) ?v_160)) (or (or ?v_0 ?v_136) P15)) (or (or ?v_110 ?v_0) ?v_28)) (or (or P37 ?v_59) ?v_25)) (or (or ?v_120 ?v_143) ?v_87)) (or (or P24 P33) ?v_128)) (or (or ?v_13 ?v_81) ?v_155)) (or (or ?v_59 ?v_172) ?v_176)) (or (or ?v_5 ?v_138) ?v_160)) (or (or ?v_60 ?v_106) ?v_158)) (or (or ?v_209 ?v_179) P0)) (or (or ?v_189 ?v_155) ?v_127)) (or (or ?v_149 ?v_182) P38)) (or (or P15 ?v_192) ?v_148)) (or (or P23 ?v_116) ?v_66)) (or (or ?v_65 ?v_187) ?v_160)) (or (or ?v_201 (not ?v_198)) P16)) (or (or ?v_1 ?v_44) ?v_117)) (or (or ?v_67 ?v_73) ?v_65)) (or (or ?v_65 ?v_85) ?v_61)) (or (or ?v_94 P17) ?v_205)) (or (or ?v_86 ?v_175) P6)) (or (or ?v_19 ?v_102) ?v_101)) (or (or ?v_8 ?v_90) ?v_93)) (or (or ?v_172 ?v_114) ?v_91)) (or (or ?v_148 ?v_210) ?v_106)) (or (or P1 ?v_156) P10)) (or (or ?v_41 ?v_123) ?v_38)) (or (or ?v_150 ?v_97) ?v_187)) (or (or ?v_19 ?v_97) ?v_191)) (or (or ?v_171 ?v_186) ?v_22)) (or (or ?v_57 ?v_80) ?v_183)) (or (or ?v_124 ?v_98) P17)) (or (or ?v_50 ?v_57) ?v_101)) (or (or ?v_86 ?v_167) ?v_104)) (or (or ?v_186 ?v_82) ?v_175)) (or (or ?v_144 P21) ?v_150)) (or (or ?v_149 ?v_125) P4)) (or (or P34 ?v_201) ?v_51)) (or (or P32 ?v_155) ?v_104)) (or (or P38 P25) ?v_185)) (or (or P20 ?v_104) P30)) (or (or ?v_85 ?v_89) ?v_196)) (or (or ?v_109 P4) ?v_198)) (or (or P1 ?v_150) ?v_136)) (or (or ?v_38 ?v_79) ?v_193)) (or (or ?v_19 P7) ?v_97)) (or (or ?v_147 ?v_203) ?v_83)) (or (or ?v_56 ?v_181) ?v_106)) (or (or ?v_35 ?v_162) ?v_44)) (or (or ?v_104 ?v_48) ?v_53)) (or (or ?v_41 P1) ?v_53)) (or (or P28 ?v_61) ?v_171)) (or (or ?v_22 ?v_187) ?v_76)) (or (or ?v_74 ?v_86) P38)) (or (or ?v_136 ?v_75) P32)) (or (or ?v_203 ?v_137) ?v_93)) (or (or ?v_58 P17) ?v_183)) (or (or ?v_168 P26) P16)) (or (or ?v_146 ?v_161) P4)) (or (or ?v_70 ?v_7) ?v_166)) (or (or ?v_17 ?v_122) P25)) (or (or ?v_134 ?v_87) ?v_121)) (or (or ?v_125 ?v_37) P17)) (or (or ?v_18 ?v_124) ?v_144)) (or (or ?v_197 ?v_40) P1)) (or (or ?v_163 ?v_123) ?v_40)) (or (or ?v_139 ?v_11) ?v_202)) (or (or ?v_195 ?v_19) ?v_166)) (or (or ?v_88 P13) P38)) (or (or ?v_8 ?v_26) P4)) (or (or ?v_192 ?v_10) P16)))))))))))))))))))))))))))))))))))
(check-sat)
(exit)
